NAME: ACTUAL_TOURS/amz0218
TYPE: TOUR
COMMENT: RouteID_160843e0-ed33-4c57-9471-f9d3fa33f8bd
DIMENSION: 157
TOUR_SECTION
112
46
156
1
147
106
51
124
25
152
155
43
111
143
151
101
58
3
27
115
42
102
127
60
129
64
50
76
157
41
67
145
107
35
149
71
4
44
99
32
78
117
144
68
31
72
69
57
136
40
63
11
53
92
7
131
73
66
81
125
138
140
148
154
61
126
18
118
8
37
135
122
82
5
120
13
19
6
20
30
79
142
91
47
97
2
36
116
28
95
59
75
70
134
21
109
26
45
85
93
94
103
114
89
150
39
123
128
100
29
98
121
84
24
77
90
137
12
88
65
86
34
96
74
56
9
141
132
113
110
16
33
153
17
14
83
133
108
139
15
55
130
104
62
52
49
105
22
80
54
10
87
48
23
119
38
146
-1
EOF
